Assets/LKHProbs~/skull.37.tsp
NAME : GeneratedProblem
COMMENT : SVGCrosshatch
TYPE : TSP
DIMENSION : 50
EDGE_WEIGHT_TYPE : EUC_2D
NODE_COORD_SECTION
1 5300 5300
2 5300 5400
3 5400 5100
4 5400 5200
5 5400 5300
6 5400 5400
7 5400 5500
8 5400 5600
9 5400 5700
10 5400 5800
11 5400 5900
12 5500 4900
13 5500 5000
14 5500 5100
15 5500 5200
16 5500 5300
17 5500 5400
18 5500 5500
19 5500 5600
20 5500 5700
21 5500 5800
22 5500 5900
23 5600 5100
24 5600 5200
25 5600 5300
26 5600 5400
27 5600 5500
28 5600 5600
29 5600 5700
30 5600 5800
31 5600 5900
32 5700 5100
33 5700 5200
34 5700 5300
35 5700 5400
36 5700 5500
37 5700 5600
38 5700 5700
39 5700 5800
40 5700 5900
41 5800 5500
42 5800 5600
43 5800 5700
44 5800 5800
45 5800 5900
46 5900 5500
47 5900 5600
48 5900 5700
49 5900 5800
50 5900 5900
EOF
