Assets/LKHProbs~/skull.37.out.txt
NAME : GeneratedProblem.5124.tour
COMMENT : Length = 5124
COMMENT : Found by LKH [Keld Helsgaun] Sun Nov 25 13:17:48 2018
TYPE : TOUR
DIMENSION : 50
TOUR_SECTION
1
2
6
7
8
9
10
11
22
21
20
19
28
37
42
43
44
39
38
29
30
31
40
45
50
49
48
47
46
41
36
35
34
25
26
27
18
17
16
15
24
33
32
23
12
13
14
3
4
5
-1
EOF
